(set-logic ALL)
(declare-const x_VAR String)
(declare-const y_VAR String)
(assert (< 0 (+ (str.len x_VAR) 1)))
(assert (< 1 (+ (str.len x_VAR) 1)))
(assert (< 2 (+ (str.len x_VAR) 1)))
(assert (not (< 3 (+ (str.len x_VAR) 1))))
(assert (< 1 (+ (str.len x_VAR) 1)))
(assert (< 1 (+ (str.len y_VAR) 1)))
(assert (> (str.len x_VAR) 0))
(assert (> (str.len y_VAR) 0))
(assert (= (str.at x_VAR 0) (str.at y_VAR 0)))
(assert (not (< 2 (+ (str.len y_VAR) 1))))
(assert (< 2 (+ (str.len x_VAR) 1)))
(assert (< 1 (+ (str.len y_VAR) 1)))
(assert (> (str.len x_VAR) 1))
(assert (> (str.len y_VAR) 0))
(assert (= (str.at x_VAR 1) (str.at y_VAR 0)))
(assert (not (< 2 (+ (str.len y_VAR) 1))))
(assert (not (< 3 (+ (str.len x_VAR) 1))))
(assert (not (> (str.len x_VAR) 0)))
(check-sat)
(get-value (x_VAR))
(get-value (y_VAR))
